100
120
84
84
84
84
83
83
83
82
81
79
79
77
76
73
69
68
68
68
68
68
67
66
65
65
65
64
63
63
63
62
62
62
59
58
58
58
57
57
55
55
55
54
54
53
53
53
51
49
49
48
48
47
46
46
44
44
44
41
41
40
40
40
39
38
38
38
36
35
34
34
33
33
31
31
29
29
28
28
28
27
26
25
24
24
22
22
21
20
20
19
17
17
15
15
15
14
13
12
12
12
